webassembly/ejemplos_dzn/folder15_json_32.dzn
TERM = { '.', 's(5)', 'in_1', 'in_6', 'in_9', 'in_0', 's(4)', 'in_3', 's(1)', 's(7)', 's(2)', 'in_2', 's(8)', 's(6)', 'in_8', 's(0)', 's(3)', 'local_0', 'local_1', 'in_4', 'in_7', 'in_5'};
null = '.';
s = 15;
n = 15;
ndeps = 4;
max_registers_sz = 5;
NR = 2;
registers = [|'local_0', 'in_4', |'local_1', 's(0)'|];
dependencies = [|'i32.load16_s_5', 'i32.store_6', |'i32.store_6', 'i32.store_8', |'i32.store_8', 'i32.load8_u_11', |'i32.load8_u_11', 'call[function_index(0)]_12'|];
GET_ENUM = { GET1, GET2, GET3, GET4, GET5, GET6, GET7};
SET_ENUM = { SET1, SET2, SET3, SET4, SET5, SET6, SET7};
TEE_ENUM = { TEE1, TEE2, TEE3, TEE4, TEE5, TEE6, TEE7};
N = 9;
OP = { 'i32.add_0', 'call[function_index(0)]_12', 'i32.const_0', 'i32.load16_s_5', 'i32.sub_0', 'i32.sub_1', 'i32.store_6', 'i32.store_8', 'i32.load8_u_11' };
in_ops = [2, 3, 0, 1, 2, 2, 2, 2, 1 ];
out_ops = [1, 3, 1, 1, 1, 1, 0, 0, 1 ];
in1 = ['s(6)', 's(3)', '.', 's(8)', 'in_1', 's(0)', 's(2)', 'in_5', 'in_7' ];
in2 = ['s(5)', 'in_8', '.', '.', 'in_2', 'in_3', 's(1)', 'in_6', '.' ];
in3 = ['.', 'in_9', '.', '.', '.', '.', '.', '.', '.' ];
out1 = ['s(7)', 's(6)', 's(8)', 's(2)', 's(0)', 's(1)', '.', '.', 's(3)' ];
out2 = ['.', 's(5)', '.', '.', '.', '.', '.', '.', '.' ];
out3 = ['.', 's(4)', '.', '.', '.', '.', '.', '.', '.' ];
comm = [true, false, false, false, false, false, false, false, false ];
gas = [1, 1, 1, 1, 1, 1, 1, 1, 1 ];
sz = [1, 1, 1, 1, 1, 1, 1, 1, 1 ];
stor = [false, true, false, false, false, false, true, true, false ];
lb = [ 1, 1, 1, 1, 1, 1, 1, 1, 1 ];
ub = [ 15, 15, 15, 15, 15, 15, 15, 15, 15 ];
startstack = [ 'in_0', 'in_1', 'in_2', 'in_3', 'in_4', 'in_5', 'in_6', 'in_7', 'in_8', 'in_9', null, null, null, null, null ];
endstack = [ 'in_4', 's(7)', 's(4)', null, null, null, null, null, null, null, null, null, null, null, null ];
